45
1 0 1
2 0 1
2 1 1
3 1 1
3 2 1
4 0 1
4 1 1
5 0 1
5 4 1
6 0 1
6 2 1
7 1 1
7 2 1
7 4 1
8 1 1
8 3 1
8 4 1
8 5 1
8 7 1
9 3 1
9 4 1
9 6 1
10 4 1
10 8 1
10 9 1
11 0 1
11 1 1
11 2 1
11 3 1
11 4 1
11 6 1
11 7 1
11 8 1
11 9 1
11 10 1
12 0 1
12 3 1
12 4 1
12 8 1
12 10 1
13 0 1
13 1 1
13 2 1
13 6 1
13 7 1
13 9 1
14 0 1
14 1 1
14 2 1
14 9 1
14 11 1
14 13 1
15 1 1
15 4 1
15 6 1
15 7 1
15 10 1
15 12 1
15 13 1
15 14 1
16 0 1
16 1 1
16 4 1
16 7 1
16 8 1
16 11 1
16 12 1
16 13 1
16 14 1
17 1 1
17 2 1
17 6 1
17 8 1
17 9 1
17 10 1
17 11 1
17 12 1
17 13 1
17 14 1
17 16 1
18 0 1
18 7 1
18 8 1
18 9 1
18 10 1
18 12 1
18 14 1
18 15 1
18 17 1
19 4 1
19 6 1
19 7 1
19 8 1
19 9 1
19 10 1
19 16 1
19 18 1
20 0 1
20 1 1
20 2 1
20 3 1
20 6 1
20 7 1
20 8 1
20 9 1
20 10 1
20 11 1
20 15 1
20 17 1
20 18 1
20 19 1
21 0 1
21 2 1
21 3 1
21 4 1
21 5 1
21 6 1
21 7 1
21 9 1
21 10 1
21 11 1
21 13 1
21 15 1
21 17 1
21 19 1
21 20 1
22 0 1
22 1 1
22 2 1
22 4 1
22 10 1
22 12 1
22 13 1
22 14 1
22 15 1
22 18 1
22 19 1
22 20 1
22 21 1
23 1 1
23 2 1
23 3 1
23 7 1
23 8 1
23 11 1
23 15 1
23 16 1
23 18 1
23 19 1
23 20 1
23 22 1
24 0 1
24 3 1
24 4 1
24 7 1
24 12 1
24 14 1
24 20 1
24 21 1
25 0 1
25 2 1
25 3 1
25 4 1
25 5 1
25 6 1
25 9 1
25 13 1
25 14 1
25 18 1
25 19 1
25 21 1
25 22 1
25 23 1
26 5 1
26 6 1
26 7 1
26 9 1
26 10 1
26 11 1
26 14 1
26 16 1
26 17 1
26 18 1
26 22 1
26 24 1
27 5 1
27 6 1
27 10 1
27 12 1
27 15 1
27 20 1
27 22 1
28 1 1
28 2 1
28 3 1
28 4 1
28 5 1
28 6 1
28 7 1
28 10 1
28 15 1
28 19 1
28 20 1
28 22 1
28 25 1
28 26 1
29 0 1
29 3 1
29 4 1
29 5 1
29 8 1
29 9 1
29 10 1
29 11 1
29 12 1
29 13 1
29 15 1
29 18 1
29 21 1
29 27 1
30 0 1
30 4 1
30 5 1
30 6 1
30 7 1
30 8 1
30 9 1
30 10 1
30 11 1
30 12 1
30 15 1
30 16 1
30 18 1
30 19 1
30 20 1
30 21 1
30 25 1
31 2 1
31 8 1
31 10 1
31 11 1
31 12 1
31 13 1
31 16 1
31 17 1
31 22 1
31 24 1
31 28 1
31 29 1
31 30 1
32 2 1
32 4 1
32 5 1
32 6 1
32 7 1
32 9 1
32 10 1
32 11 1
32 13 1
32 16 1
32 19 1
32 27 1
32 29 1
32 31 1
33 0 1
33 2 1
33 4 1
33 8 1
33 10 1
33 11 1
33 13 1
33 14 1
33 15 1
33 17 1
33 18 1
33 19 1
33 20 1
33 21 1
33 25 1
33 26 1
33 27 1
33 28 1
33 29 1
33 31 1
34 5 1
34 6 1
34 7 1
34 10 1
34 12 1
34 19 1
34 21 1
34 23 1
34 24 1
34 33 1
35 0 1
35 3 1
35 4 1
35 6 1
35 7 1
35 8 1
35 15 1
35 16 1
35 18 1
35 20 1
35 23 1
35 26 1
35 28 1
35 30 1
35 32 1
35 33 1
36 0 1
36 2 1
36 3 1
36 7 1
36 11 1
36 12 1
36 13 1
36 14 1
36 17 1
36 19 1
36 21 1
36 23 1
36 24 1
36 25 1
36 26 1
36 29 1
36 31 1
36 33 1
36 35 1
37 5 1
37 6 1
37 7 1
37 8 1
37 9 1
37 13 1
37 15 1
37 19 1
37 20 1
37 24 1
37 25 1
37 27 1
37 28 1
37 29 1
37 30 1
37 33 1
37 34 1
37 35 1
38 0 1
38 1 1
38 2 1
38 5 1
38 6 1
38 8 1
38 9 1
38 11 1
38 12 1
38 14 1
38 16 1
38 18 1
38 22 1
38 23 1
38 24 1
38 28 1
38 29 1
38 32 1
38 33 1
38 36 1
38 37 1
39 5 1
39 7 1
39 9 1
39 10 1
39 13 1
39 15 1
39 20 1
39 21 1
39 22 1
39 23 1
39 24 1
39 25 1
39 26 1
39 27 1
39 30 1
39 31 1
39 34 1
39 36 1
39 38 1
40 1 1
40 2 1
40 3 1
40 5 1
40 8 1
40 13 1
40 16 1
40 18 1
40 21 1
40 24 1
40 26 1
40 28 1
40 31 1
40 32 1
40 33 1
40 35 1
40 36 1
40 38 1
40 39 1
41 1 1
41 2 1
41 3 1
41 4 1
41 8 1
41 9 1
41 14 1
41 17 1
41 18 1
41 19 1
41 20 1
41 21 1
41 22 1
41 25 1
41 26 1
41 27 1
41 28 1
41 31 1
41 32 1
41 33 1
41 36 1
41 39 1
42 0 1
42 2 1
42 4 1
42 5 1
42 6 1
42 10 1
42 14 1
42 15 1
42 16 1
42 17 1
42 19 1
42 20 1
42 24 1
42 25 1
42 35 1
42 37 1
42 40 1
43 2 1
43 4 1
43 5 1
43 6 1
43 8 1
43 11 1
43 12 1
43 13 1
43 15 1
43 18 1
43 20 1
43 23 1
43 26 1
43 27 1
43 34 1
43 36 1
43 39 1
43 42 1
44 1 1
44 3 1
44 7 1
44 8 1
44 11 1
44 12 1
44 15 1
44 17 1
44 18 1
44 19 1
44 20 1
44 21 1
44 24 1
44 25 1
44 28 1
44 29 1
44 31 1
44 34 1
44 41 1
44 42 1
44 43 1
